NAME : amtsp.-95645.tour
COMMENT : Length = -95645
COMMENT : Found by LKH [Keld Helsgaun] Tue Apr  1 17:31:00 2025
TYPE : TOUR
DIMENSION : 32
TOUR_SECTION
1
2
30
31
32
29
28
27
26
25
24
23
22
21
20
17
18
19
12
13
14
15
16
11
10
9
8
3
4
5
6
7
-1
EOF
